sat
(= |goto_symex::&92;guard#1| false)
(= |goto_symex::&92;guard#2| true)
(= |goto_symex::&92;guard#3| false)
(= |goto_symex::&92;guard#4| false)
(= |goto_symex::&92;guard#5| true)
(= |goto_symex::&92;guard#6| true)
(= |goto_symex::&92;guard#7| false)
(= |goto_symex::&92;guard#8| false)
(= |__VERIFIER_atomic_assert::$tmp::::tmp_if_expr$1!1@1#5| true)
(= |memory_model::choice_rf_1_31_0_8_T_0| false)
(= |memory_model::choice_rf_1_11_0_9_F_1| true)
(= |memory_model::choice_rf_1_14_0_9_F_2| false)
(= |memory_model::choice_rf_1_14_1_12_F_3| false)
(= |memory_model::choice_rf_1_19_0_9_F_4| false)
(= |memory_model::choice_rf_1_19_1_12_F_5| true)
(= |memory_model::choice_rf_1_19_1_15_F_6| false)
(= |memory_model::choice_rf_1_21_0_11_F_7| true)
(= |memory_model::choice_rf_1_24_0_11_F_8| false)
(= |memory_model::choice_rf_1_24_1_22_F_9| true)
(= |memory_model::choice_rf_1_13_0_12_F_10| true)
(= |memory_model::choice_rf_1_16_0_12_F_11| true)
(= |memory_model::choice_rf_1_17_0_12_F_12| true)
(= |memory_model::choice_rf_1_23_0_14_F_13| false)
(= |memory_model::choice_rf_1_23_1_5_F_14| true)
(= |memory_model::choice_rf_1_26_0_14_F_15| false)
(= |memory_model::choice_rf_1_26_1_5_F_16| true)
(= |memory_model::choice_rf_1_30_0_14_F_17| false)
(= |memory_model::choice_rf_1_30_1_5_F_18| false)
(= |memory_model::choice_rf_1_30_1_28_F_19| true)
(= |memory_model::choice_rf_1_1_0_10_F_20| true)
(= |memory_model::choice_rf_1_7_0_10_F_21| false)
(= |memory_model::choice_rf_1_7_1_2_F_22| true)
(= |memory_model::choice_rf_1_3_0_13_F_23| true)
(= |memory_model::choice_rf_1_4_0_13_F_24| false)
(= |memory_model::choice_rf_1_29_1_0_F_25| false)
(= |memory_model::choice_rf_1_29_1_9_F_26| false)
(= |memory_model::choice_rf_1_29_1_10_F_27| false)
(= |memory_model::choice_rf_1_29_1_27_F_28| true)
(= |memory_model::choice_ws-ext_0_8_1_32_T_29| true)
(= |memory_model::choice_ws-ext_0_9_1_12_F_30| true)
(= |memory_model::choice_ws-ext_0_9_1_15_F_31| true)
(= |memory_model::choice_ws-ext_0_9_1_20_F_32| true)
(= |memory_model::choice_ws-ext_0_11_1_22_F_33| true)
(= |memory_model::choice_ws-ext_0_11_1_25_F_34| true)
(= |memory_model::choice_ws-ext_0_12_1_18_F_35| true)
(= |memory_model::choice_ws-ext_0_14_1_5_F_36| true)
(= |memory_model::choice_ws-ext_0_14_1_28_F_37| true)
(= |memory_model::choice_ws-ext_0_10_1_2_F_38| true)
(= |memory_model::choice_ws-ext_0_10_1_8_F_39| true)
(= |memory_model::choice_ws-ext_0_13_1_6_F_40| true)
(= |m2#3| #b00000000000000000000000000000000)
(= |m2#6| #b00000000000000000000000000000001)
(= |m#3| #b00000000000000000000000000000000)
(= |m#6| #b10000000000000000000000000000000)
(= |m#9| #b00000000000000000000000000000001)
(= |m2#2| #b00000000000000000000000000000000)
(= |state#2| #b00000000000000000000000000000000)
(= |state#3| #b10000000000000000000000000000000)
(= |m2#5| #b00000000000000000000000000000001)
(= |nondet_symex::nondet0| #b10000000000000000000000000000000)
(= |m#2| #b00000000000000000000000000000000)
(= |next_alloc_idx#2| #b00000000000000000000000000000001)
(= |m#5| #b10000000000000000000000000000000)
(= |next_alloc_idx#3| #b00000000000000000000000000000001)
(= |next_alloc_idx#4| #b00000000000000000000000000000001)
(= |m#8| #b00000000000000000000000000000001)
(= |top#3| #b00000000000000000000000000000000)
(= |push::1::casret!1@1| #b00000000000000000000000000000000)
(= |top#4| #b00000000000000000000000000000000)
(= |push::1::casret!1@1#8| #b00000000000000000000000000000001)
(= |top#9| #b00000000000000000000000000000001)
(= |push::1::casret!1@1#1| #b00000000000000000000000000000000)
(= |__CPROVER_threads_exited#1$wclk$8| #b001110)
(= |__CPROVER_threads_exited#2$rclk$8| #b111110)
(= |m#1$wclk$8| #b001111)
(= |m#2$rclk$8| #b101100)
(= |m#5$rclk$8| #b110000)
(= |m#8$rclk$8| #b110101)
(= |memory#1$wclk$8| #b010010)
(= |memory#2$rclk$8| #b110110)
(= |memory#4$rclk$8| #b111001)
(= |next_alloc_idx#1$wclk$8| #b010110)
(= |next_alloc_idx#2$rclk$8| #b101101)
(= |next_alloc_idx#3$rclk$8| #b110001)
(= |next_alloc_idx#4$rclk$8| #b110010)
(= |top#1$wclk$8| #b011001)
(= |top#3$rclk$8| #b111000)
(= |top#4$rclk$8| #b111011)
(= |top#9$rclk$8| #b111101)
(= |m2#1$wclk$8| #b010001)
(= |m2#2$rclk$8| #b011111)
(= |m2#5$rclk$8| #b101001)
(= |state#1$wclk$8| #b011000)
(= |state#2$rclk$8| #b100000)
(= |state#3$rclk$8| #b100001)
(= |__CPROVER_threads_exited#3$wclk$8| #b111111)
(= |m#4$wclk$8| #b101100)
(= |m#7$wclk$8| #b110000)
(= |m#10$wclk$8| #b110101)
(= |memory#3$wclk$8| #b110111)
(= |memory#5$wclk$8| #b111010)
(= |next_alloc_idx#5$wclk$8| #b110011)
(= |top#2$wclk$8| #b100011)
(= |top#8$wclk$8| #b111011)
(= |m2#4$wclk$8| #b011111)
(= |m2#7$wclk$8| #b101001)
(= |state#4$wclk$8| #b101000)
(= t1$18$spwnclk$8 #b011101)
(= |push::1::casret!1@1$wclk$8| #b011110)
(= |push::1::casret!1@1#1$wclk$8| #b101010)
(= |push::1::casret!1@1#2$wclk$8| #b101011)
(= |push::1::casret!1@1#7$wclk$8| #b111011)
(= |push::1::casret!1@1#8$rclk$8| #b111100)
(= |__CPROVER_dead_object#1$wclk$8| #b000000)
(= |__CPROVER_deallocated#1$wclk$8| #b000010)
(= |__CPROVER_malloc_is_new_array#1$wclk$8| #b000100)
(= |__CPROVER_malloc_object#1$wclk$8| #b000101)
(= |__CPROVER_malloc_size#1$wclk$8| #b000111)
(= |__CPROVER_memory_leak#1$wclk$8| #b001010)
(= |__CPROVER_next_thread_id#1$wclk$8| #b001011)
(= |__CPROVER_pipe_count#1$wclk$8| #b001100)
(= |main::1::t!0@1#1$wclk$8| #b011010)
(= |__CPROVER_next_thread_id#2$wclk$8| #b011011)
(= |main::1::t!0@1#2$wclk$8| #b011100)
(= array_of.0 @fun_3846)
(= array.1 @fun_3844)
(= |memory#2| @fun_3844)
(= |memory#4| @fun_3850)
(= |__CPROVER_threads_exited#2| @fun_3848)
(function @fun_3846
 (type (Array (_ BitVec 32) (_ BitVec 1)))
 (default #b0))
(function @fun_3844
 (type (Array (_ BitVec 32) (_ BitVec 32)))
 (default #b00000000000000000000000000000000))
(function @fun_3850
 (type (Array (_ BitVec 32) (_ BitVec 32)))
 (= (@fun_3850 #b00000000000000000000000000000001) #b10000000000000000000000000000000)
 (default #b00000000000000000000000000000000))
(function @fun_3848
 (type (Array (_ BitVec 32) (_ BitVec 1)))
 (default #b1))

real	0m0.016s
user	0m0.016s
sys	0m0.000s
State: AC Run_time: 0.018424510955810547